12660.0
10, 37, 53, 60, 83, 134, 161, 164, 198, 216, 236, 245, 262, 273, 292, 303, 334, 371, 379, 421, 426, 469, 473, 505, 531, 539, 550, 568, 592, 598, 599, 651, 657, 658, 693, 728, 736, 751, 770, 803, 811, 834, 878, 933, 937, 987, 1034, 1043, 1048, 1050, 1096, 1099, 1106, 1117, 1138, 1143, 1153, 1158, 1239, 1244, 1248, 1260, 1269, 1272, 1297, 1329, 1333, 1342, 1344, 1361, 1400, 1403, 1408, 1419, 1424, 1431, 1445, 1463, 1485, 1507, 1532, 1544, 1548, 1567, 1572, 1591, 1604, 1624, 1647, 1667, 1672, 1709, 1713, 1724, 1731, 1825, 1831, 1853, 1868, 1900, 1936, 1991